Test: Urq4_5.cnf
Options: -no-inverting-opt -activity-nl-freq=1
WARNING: for repeatability, setting FPU to use double precision
============================[ Problem Statistics ]=============================
|                                                                             |
|  Number of symmetries:           43                                         |
|  Number of invertingSyms:        43                                         |
|  Number of variables:            74                                         |
|  Number of clauses:             694                                         |
|  Parse time:                   0.00 s                                       |
|                                                                             |
============================[ Search Statistics ]==============================
| Conflicts |          ORIGINAL         |          LEARNT          | Progress |
|           |    Vars  Clauses Literals |    Limit  Clauses Lit/Cl |          |
===============================================================================
|       100 |      74      694     4272 |      254      111     19 |  0.019 % |
===============================================================================
restarts              : 2
conflicts             : 186            (inf /sec)
symconflicts          : 65             (inf /sec)
decisions             : 291            (0.00 % random) (inf /sec)
propagations          : 1204           (inf /sec)
sympropagations       : 65             (inf /sec)
conflict literals     : 3482           (0.51 % deleted)
literals     : 3482           (0.51 % deleted)

HEURISTIC USAGES
random                : 0           
activity w/ lookahead : 0           
activity no lookahead : 291         
original sp           : 0           
sym count             : 0           

Memory used           : 5.00 MB
CPU time              : 0 s

UNSATISFIABLE
